119 48 011 1
1
457 113 1
377 114 1
314 115 1
277 116 1
407 117 1
368 118 1
347 119 1
386 108 1
299 109 1
412 110 1
397 111 1
436 112 1
353 113 1
459 114 1
332 115 1
368 116 1
408 117 1
288 118 1
329 119 1
317 108 1
330 109 1
402 110 1
320 111 1
278 112 1
409 113 1
370 114 1
303 115 1
384 116 1
388 117 1
445 118 1
437 119 1
469 108 1
370 109 1
431 110 1
286 111 1
335 112 1
292 113 1
287 114 1
411 115 1
315 116 1
348 117 1
422 118 1
406 119 1
363 108 1
506 109 1
398 110 1
315 111 1
404 112 1
1
1
1
1
1
1
1
1
1
1
1
1
1
1
1
1
1
1
1
1
1
1
1
1
1
1
1
1
1
1
1
1
1
1
1
1
1
1
1
1
1
1
1
1
1
1
1
1
1
1
1
1
1
1
1
1
1
1
1 9 385 21 316 33 468 45 362
1 10 298 22 329 34 369 46 505
1 11 411 23 401 35 430 47 397
1 12 396 24 319 36 285 48 314
1 13 435 25 277 37 334 49 403
1 2 456 14 352 26 408 38 291
1 3 376 15 458 27 369 39 286
1 4 313 16 331 28 302 40 410
1 5 276 17 367 29 383 41 314
1 6 406 18 407 30 387 42 347
1 7 367 19 287 31 444 43 421
1 8 346 20 328 32 436 44 405
